32	3
14	16	11
0	0	0	0	1	2
7	0	0	0	1	3
8	0	0	0	2	4	6
3	0	0	0	1	5
7	0	0	0	3	7	15	18
3	0	0	1	2	9	18
10	0	10	0	1	8
4	3	0	0	1	9
6	0	0	0	1	10
9	0	0	0	1	11
8	0	0	3	1	12
4	0	0	0	2	13	20
8	0	6	0	1	14
4	0	1	3	1	16
3	7	0	5	1	16
10	7	0	0	1	17
2	0	0	0	1	19
1	2	0	0	1	19
5	0	0	0	1	21
7	0	1	0	1	21
10	0	0	0	1	22
5	1	0	0	1	23
5	0	0	2	1	24
6	0	0	0	2	25	31
6	0	1	0	1	26
5	0	0	0	1	27
10	0	0	0	2	28	30
3	0	5	0	1	29
5	0	0	0	1	32
6	1	0	3	1	32
8	0	0	0	1	32
0	0	0	0	0
